certificates/rado_a13_c134_N31.cnf
c Rad2 upper bound instance: x1 + 13*x2 - x3 = 134, interval [1,31]
p cnf 31 146
1 10 11 0
-1 -10 -11 0
1 12 23 0
-1 -12 -23 0
2 11 0
-2 -11 0
2 12 24 0
-2 -12 -24 0
3 11 12 0
-3 -11 -12 0
3 12 25 0
-3 -12 -25 0
4 11 13 0
-4 -11 -13 0
4 12 26 0
-4 -12 -26 0
1 5 10 0
-1 -5 -10 0
5 11 14 0
-5 -11 -14 0
5 12 27 0
-5 -12 -27 0
2 6 10 0
-2 -6 -10 0
6 11 15 0
-6 -11 -15 0
6 12 28 0
-6 -12 -28 0
3 7 10 0
-3 -7 -10 0
7 11 16 0
-7 -11 -16 0
7 12 29 0
-7 -12 -29 0
4 8 10 0
-4 -8 -10 0
8 11 17 0
-8 -11 -17 0
8 12 30 0
-8 -12 -30 0
5 9 10 0
-5 -9 -10 0
9 11 18 0
-9 -11 -18 0
9 12 31 0
-9 -12 -31 0
6 10 0
-6 -10 0
10 11 19 0
-10 -11 -19 0
7 10 11 0
-7 -10 -11 0
11 20 0
-11 -20 0
8 10 12 0
-8 -10 -12 0
11 12 21 0
-11 -12 -21 0
9 10 13 0
-9 -10 -13 0
11 13 22 0
-11 -13 -22 0
10 14 0
-10 -14 0
11 14 23 0
-11 -14 -23 0
10 11 15 0
-10 -11 -15 0
11 15 24 0
-11 -15 -24 0
10 12 16 0
-10 -12 -16 0
11 16 25 0
-11 -16 -25 0
10 13 17 0
-10 -13 -17 0
11 17 26 0
-11 -17 -26 0
1 9 18 0
-1 -9 -18 0
10 14 18 0
-10 -14 -18 0
11 18 27 0
-11 -18 -27 0
2 9 19 0
-2 -9 -19 0
10 15 19 0
-10 -15 -19 0
11 19 28 0
-11 -19 -28 0
3 9 20 0
-3 -9 -20 0
10 16 20 0
-10 -16 -20 0
11 20 29 0
-11 -20 -29 0
4 9 21 0
-4 -9 -21 0
10 17 21 0
-10 -17 -21 0
11 21 30 0
-11 -21 -30 0
5 9 22 0
-5 -9 -22 0
10 18 22 0
-10 -18 -22 0
11 22 31 0
-11 -22 -31 0
6 9 23 0
-6 -9 -23 0
10 19 23 0
-10 -19 -23 0
7 9 24 0
-7 -9 -24 0
10 20 24 0
-10 -20 -24 0
8 9 25 0
-8 -9 -25 0
10 21 25 0
-10 -21 -25 0
9 26 0
-9 -26 0
10 22 26 0
-10 -22 -26 0
9 10 27 0
-9 -10 -27 0
10 23 27 0
-10 -23 -27 0
9 11 28 0
-9 -11 -28 0
10 24 28 0
-10 -24 -28 0
9 12 29 0
-9 -12 -29 0
10 25 29 0
-10 -25 -29 0
9 13 30 0
-9 -13 -30 0
10 26 30 0
-10 -26 -30 0
1 8 31 0
-1 -8 -31 0
9 14 31 0
-9 -14 -31 0
10 27 31 0
-10 -27 -31 0
