certificates/rado_a13_c134_N31.drat
10 -28 -31 0
-28 -30 -31 0
-10 -30 -31 0
-30 -31 0
d -28 -30 -31 0
-14 28 -31 0
28 -31 0
d -14 28 -31 0
9 -31 0
-28 -31 0
d 10 -28 -31 0
-31 0
-10 0
6 0
14 0
27 0
-9 0
26 0
12 0
13 0
5 0
-28 0
0
